32      2       
10      10      
0       0       0       1       2       
5       0       1       1       3       
3       1       4       2       4       5       
7       3       0       1       6       
5       4       0       1       6       
2       8       2       1       7       
1       0       3       1       8       
2       5       2       1       9       
7       4       6       1       10      
5       3       3       2       11      13      
4       5       6       1       12      
2       4       4       1       14      
4       7       9       1       14      
7       3       0       2       15      16      
9       0       6       1       17      
5       0       3       1       17      
1       0       7       1       18      
10      3       3       1       19      
6       2       4       1       20      
3       3       6       1       21      
7       5       3       1       22      
8       5       0       1       23      
7       7       0       1       24      
3       3       3       1       25      
6       4       0       1       26      
6       0       3       1       27      
10      2       3       1       28      
5       5       2       1       29      
8       0       3       1       30      
9       5       5       1       31      
6       1       5       1       32      
0       0       0       0       
